(declare-fun var0 () String)
(assert (RegexIn var0 (RegexConcat (RegexUnion (RegexStar (Str2Reg "RRR")) (RegexStar (Str2Reg "SS"))) (RegexConcat (RegexUnion (RegexUnion (Str2Reg "OO") (Str2Reg "PPP")) (RegexPlus (Str2Reg "QQQ"))) (RegexConcat (RegexPlus (RegexUnion (Str2Reg "MM") (Str2Reg "NN"))) (RegexConcat (RegexUnion (RegexPlus (Str2Reg "J")) (RegexUnion (Str2Reg "KKK") (Str2Reg "LL"))) (RegexConcat (RegexStar (RegexStar (Str2Reg "I"))) (RegexConcat (RegexUnion (RegexUnion (Str2Reg "F") (Str2Reg "G")) (RegexStar (Str2Reg "H"))) (RegexConcat (RegexUnion (RegexStar (Str2Reg "DDD")) (RegexPlus (Str2Reg "E"))) (RegexConcat (RegexStar (RegexUnion (Str2Reg "B") (Str2Reg "C"))) (RegexConcat (RegexPlus (RegexPlus (Str2Reg "AAA"))) (RegexConcat (RegexPlus (RegexStar (Str2Reg "zzz"))) (RegexConcat (RegexStar (RegexPlus (Str2Reg "y"))) (RegexConcat (RegexStar (RegexUnion (Str2Reg "w") (Str2Reg "x"))) (RegexConcat (RegexUnion (RegexUnion (Str2Reg "tt") (Str2Reg "u")) (RegexStar (Str2Reg "v"))) (RegexConcat (RegexStar (RegexStar (Str2Reg "sss"))) (RegexConcat (RegexUnion (RegexPlus (Str2Reg "qqq")) (RegexPlus (Str2Reg "rrr"))) (RegexConcat (RegexPlus (RegexPlus (Str2Reg "pp"))) (RegexConcat (RegexUnion (RegexPlus (Str2Reg "mmm")) (RegexUnion (Str2Reg "nn") (Str2Reg "oo"))) (RegexConcat (RegexPlus (RegexUnion (Str2Reg "kk") (Str2Reg "ll"))) (RegexConcat (RegexStar (RegexStar (Str2Reg "jjj"))) (RegexConcat (RegexUnion (RegexStar (Str2Reg "hh")) (RegexStar (Str2Reg "i"))) (RegexConcat (RegexUnion (RegexUnion (Str2Reg "e") (Str2Reg "ff")) (RegexPlus (Str2Reg "ggg"))) (RegexConcat (RegexStar (RegexPlus (Str2Reg "d"))) (RegexConcat (RegexStar (RegexStar (Str2Reg "ccc"))) (RegexConcat (RegexUnion (RegexStar (Str2Reg "aa")) (RegexStar (Str2Reg "bb"))) (RegexConcat (RegexStar (RegexUnion (Str2Reg "8") (Str2Reg "99"))) (RegexConcat (RegexUnion (RegexStar (Str2Reg "6")) (RegexPlus (Str2Reg "777"))) (RegexConcat (RegexUnion (RegexStar (Str2Reg "44")) (RegexStar (Str2Reg "5"))) (RegexConcat (RegexPlus (RegexUnion (Str2Reg "2") (Str2Reg "333"))) (RegexUnion (RegexStar (Str2Reg "000")) (RegexPlus (Str2Reg "1")))))))))))))))))))))))))))))))))
(check-sat)